
Gurobi 11.0.0 (win64) logging started Fri May  3 16:46:47 2024

Set parameter LogFile to value "./Results/StripPacking-CutHeurRuns/Logs/RU-111-StripPacking-10.log"
Set parameter TimeLimit to value 10800
Set parameter Cuts to value 1
Set parameter Presolve to value 1
Set parameter Heuristics to value 1
Set parameter LPWarmStart to value 2
Gurobi Optimizer version 11.0.0 build v11.0.0rc2 (win64 - Windows 10.0 (19045.2))

CPU model: Intel(R) Core(TM) i9-10980XE CPU @ 3.00GHz, instruction set [SSE2|AVX|AVX2|AVX512]
Thread count: 18 physical cores, 36 logical processors, using up to 18 threads

Optimize a model with 685 rows, 201 columns and 1820 nonzeros
Model fingerprint: 0x0cf9fee5
Variable types: 21 continuous, 180 integer (180 binary)
Coefficient statistics:
  Matrix range     [1e+00, 1e+04]
  Objective range  [1e+00, 1e+00]
  Bounds range     [1e+00, 1e+04]
  RHS range        [1e+00, 1e+04]

Warning: Completing partial solution with 180 unfixed non-continuous variables out of 180
User MIP start produced solution with objective 50 (0.00s)
Loaded user MIP start with objective 50

Presolve removed 128 rows and 22 columns
Presolve time: 0.02s
Presolved: 557 rows, 179 columns, 1724 nonzeros
Variable types: 21 continuous, 158 integer (158 binary)

Root relaxation: objective 3.500000e+01, 173 iterations, 0.00 seconds (0.00 work units)

    Nodes    |    Current Node    |     Objective Bounds      |     Work
 Expl Unexpl |  Obj  Depth IntInf | Incumbent    BestBd   Gap | It/Node Time

     0     0   35.00000    0    4   50.00000   35.00000  30.0%     -    0s
H    0     0                      49.0000000   35.00000  28.6%     -    0s
     0     0   35.00000    0   10   49.00000   35.00000  28.6%     -    0s
H    0     0                      46.0000000   35.00000  23.9%     -    0s
     0     0   35.00000    0   10   46.00000   35.00000  23.9%     -    0s
     0     0   35.00000    0    8   46.00000   35.00000  23.9%     -    0s
     0     0   35.00000    0    8   46.00000   35.00000  23.9%     -    0s
     0     0   35.00000    0    8   46.00000   35.00000  23.9%     -    0s
     0     0   35.00000    0    8   46.00000   35.00000  23.9%     -    0s
H    0     0                      45.0000000   35.00000  22.2%     -    0s
     0     0   35.00000    0   10   45.00000   35.00000  22.2%     -    0s
     0     0   35.00000    0   13   45.00000   35.00000  22.2%     -    0s
     0     0   35.00000    0    8   45.00000   35.00000  22.2%     -    0s
     0     0   35.00000    0    8   45.00000   35.00000  22.2%     -    0s
     0     2   35.00000    0    8   45.00000   35.00000  22.2%     -    0s
H   76    75                      44.0000000   35.00000  20.5%  14.2    0s
H  329   290                      42.0000000   35.00000  16.7%  12.4    0s
H  473   364                      41.0000000   35.00000  14.6%  10.8    0s
H  516   364                      39.0000000   35.00000  10.3%  10.5    0s
  6036    56 infeasible   24        39.00000   38.00000  2.56%   6.2    5s

Cutting planes:
  Learned: 269
  Gomory: 6
  Cover: 3
  Implied bound: 1
  MIR: 46
  Flow cover: 1
  RLT: 1
  Relax-and-lift: 4

Explored 6487 nodes (40417 simplex iterations) in 5.30 seconds (4.49 work units)
Thread count was 18 (of 36 available processors)

Solution count 8: 39 41 42 ... 50

Optimal solution found (tolerance 1.00e-04)
Best objective 3.900000000000e+01, best bound 3.900000000000e+01, gap 0.0000%
